* ENCODING=ISO-8859-1
NAME          CPLEX
ROWS
 N  obj1    
 G  c1      
 G  c2      
 G  c3      
 G  c4      
 G  c5      
 G  c6      
 G  c7      
 G  c8      
 G  c9      
 G  c10     
 G  c11     
 G  c12     
 G  c13     
 G  c14     
 G  c15     
 G  c16     
 G  c17     
 G  c18     
 G  c19     
 G  c20     
 G  c21     
 G  c22     
 G  c23     
 G  c24     
 G  c25     
 G  c26     
 G  c27     
 G  c28     
 G  c29     
 G  c30     
 G  c31     
 G  c32     
 G  c33     
 G  c34     
 G  c35     
 G  c36     
 G  c37     
 G  c38     
 G  c39     
 G  c40     
COLUMNS
    MARK0000  'MARKER'                 'INTORG'
    x1        obj1                            1
    x1        c14                           934
    x1        c16                           210
    x2        obj1                            1
    x2        c13                           398
    x2        c27                           175
    x2        c32                           591
    x2        c35                           969
    x3        obj1                            1
    x3        c13                           432
    x3        c28                           679
    x4        obj1                            1
    x4        c5                            237
    x4        c33                           680
    x4        c35                           818
    x4        c38                           795
    x5        obj1                            1
    x5        c18                           789
    x6        obj1                            1
    x6        c7                            363
    x6        c23                           962
    x6        c31                           835
    x6        c32                           491
    x7        obj1                            1
    x7        c11                           766
    x7        c19                           301
    x7        c26                           776
    x7        c29                           496
    x8        obj1                            1
    x8        c8                            153
    x8        c20                           195
    x8        c40                           855
    x9        obj1                            1
    x9        c16                           685
    x9        c27                           610
    x9        c30                           418
    x9        c32                           406
    x9        c35                           749
    x10       obj1                            1
    x10       c20                           964
    x11       obj1                            1
    x11       c1                            100
    x11       c38                           143
    x11       c40                           413
    x12       obj1                            1
    x12       c11                           817
    x12       c14                           649
    x12       c32                           525
    x12       c40                           669
    x13       obj1                            1
    x13       c1                            718
    x13       c8                            612
    x13       c12                           189
    x13       c16                           368
    x13       c22                           888
    x13       c27                           263
    x13       c34                           473
    x14       obj1                            1
    x14       c23                           167
    x15       obj1                            1
    x15       c7                            258
    x15       c9                            671
    x15       c14                           185
    x15       c21                           405
    x15       c35                           702
    x15       c40                           163
    x16       obj1                            1
    x16       c3                            115
    x16       c8                            560
    x16       c15                           677
    x16       c20                           103
    x16       c21                           872
    x17       obj1                            1
    x17       c6                            899
    x17       c23                           311
    x18       obj1                            1
    x18       c36                           995
    x19       obj1                            1
    x19       c7                            209
    x19       c8                            127
    x19       c15                           799
    x19       c21                           301
    x19       c25                           901
    x19       c27                           347
    x19       c32                           528
    x20       obj1                            1
    x20       c5                            182
    x20       c12                           927
    x20       c27                           250
    x20       c32                           472
    x20       c35                           930
    x20       c36                           304
    x20       c38                           573
    x21       obj1                            1
    x21       c23                           653
    x21       c24                           554
    x21       c32                           203
    x21       c35                           278
    x22       obj1                            1
    x22       c14                           863
    x22       c21                           520
    x22       c24                           467
    x22       c27                           985
    x22       c31                           537
    x22       c33                           937
    x22       c34                           217
    x22       c38                           859
    x22       c39                           975
    x23       obj1                            1
    x23       c13                           504
    x23       c24                           430
    x23       c25                           280
    x23       c35                           395
    x24       obj1                            1
    x24       c2                            407
    x24       c5                            984
    x24       c7                            871
    x24       c11                           441
    x24       c12                           795
    x24       c17                           860
    x24       c30                           564
    x25       obj1                            1
    x25       c10                           969
    x25       c29                           873
    x25       c38                           416
    x26       obj1                            1
    x26       c21                           701
    x26       c22                           139
    x26       c28                           605
    x26       c39                           415
    x27       obj1                            1
    x27       c14                           459
    x28       obj1                            1
    x28       c22                           474
    x28       c25                           211
    x28       c35                           321
    x29       obj1                            1
    x29       c13                           622
    x29       c20                           134
    x29       c27                           770
    x29       c32                           933
    x30       obj1                            1
    x30       c27                           441
    x30       c28                           515
    x30       c35                           200
    x31       obj1                            1
    x31       c36                           904
    x31       c37                           879
    x32       obj1                            1
    x32       c2                            459
    x32       c10                           123
    x32       c15                           730
    x32       c33                           787
    x33       obj1                            1
    x33       c11                           255
    x33       c15                           376
    x34       obj1                            1
    x34       c20                           464
    x34       c24                           420
    x34       c27                           514
    x34       c39                           509
    x35       obj1                            1
    x35       c5                            825
    x35       c20                           238
    x35       c26                           409
    x36       obj1                            1
    x36       c18                           264
    x36       c23                           373
    x36       c24                           708
    x36       c29                           459
    x37       obj1                            1
    x37       c15                           731
    x37       c23                           832
    x37       c35                          1000
    x38       obj1                            1
    x38       c37                           652
    x38       c40                           543
    x39       obj1                            1
    x39       c7                            595
    x39       c21                           965
    x39       c32                           537
    x40       obj1                            1
    x40       c14                           857
    x40       c23                           688
    x40       c25                           828
    x40       c30                           524
    x41       obj1                            1
    x41       c8                            150
    x41       c18                           199
    x41       c20                           732
    x41       c25                           369
    x41       c29                           129
    x41       c40                           679
    x42       obj1                            1
    x42       c13                           688
    x42       c14                           796
    x42       c15                           448
    x42       c30                           299
    x43       obj1                            1
    x43       c1                            532
    x44       obj1                            1
    x44       c6                            628
    x44       c9                            730
    x44       c28                           592
    x45       obj1                            1
    x45       c8                            245
    x45       c35                           801
    x45       c37                           485
    x46       obj1                            1
    x46       c3                            122
    x46       c37                           130
    x46       c40                           778
    x47       obj1                            1
    x47       c18                           280
    x47       c19                           983
    x47       c37                           382
    x47       c40                           545
    x48       obj1                            1
    x48       c19                           845
    x48       c28                           446
    x48       c34                           941
    x49       obj1                            1
    x49       c28                           891
    x49       c33                           885
    x50       obj1                            1
    x50       c13                           805
    x50       c15                           186
    x50       c18                           599
    x50       c40                           598
    x51       obj1                            1
    x51       c3                            543
    x51       c9                            979
    x51       c14                           867
    x51       c25                           917
    x51       c33                           422
    x52       obj1                            1
    x52       c2                            694
    x52       c3                            712
    x52       c18                           626
    x52       c20                           850
    x52       c33                           583
    x53       obj1                            1
    x53       c1                            624
    x53       c9                            250
    x53       c11                           133
    x53       c13                           741
    x53       c23                           150
    x53       c25                           834
    x53       c40                           688
    x54       obj1                            1
    x54       c5                            797
    x54       c14                           466
    x54       c17                           271
    x54       c20                           957
    x54       c21                           717
    x54       c22                           643
    x54       c26                           570
    x55       obj1                            1
    x55       c2                            644
    x55       c5                            356
    x56       obj1                            1
    x56       c4                            808
    x56       c17                           677
    x56       c25                           457
    x56       c36                           379
    x57       obj1                            1
    x57       c9                            750
    x57       c12                           547
    x58       obj1                            1
    x58       c1                            368
    x58       c10                           642
    x59       obj1                            1
    x59       c8                            526
    x59       c10                           968
    x59       c12                           233
    x59       c29                           552
    x59       c36                           232
    x59       c38                           643
    x59       c39                           514
    x60       obj1                            1
    x60       c17                           574
    x60       c23                           783
    x60       c30                           811
    x60       c31                           747
    x60       c33                           347
    x61       obj1                            1
    x61       c33                           439
    x62       obj1                            1
    x62       c1                            326
    x62       c8                            203
    x62       c18                           499
    x62       c19                           426
    x62       c22                           388
    x62       c27                           104
    x62       c37                           935
    x63       obj1                            1
    x63       c4                            734
    x63       c15                           654
    x63       c22                           419
    x63       c26                           557
    x63       c31                           800
    x64       obj1                            1
    x64       c7                            926
    x64       c16                           975
    x64       c17                           332
    x64       c18                           565
    x64       c22                           478
    x64       c30                           379
    x64       c37                           184
    x65       obj1                            1
    x65       c3                            269
    x65       c10                           556
    x65       c31                           368
    x65       c32                           724
    x66       obj1                            1
    x67       obj1                            1
    x67       c18                           733
    x67       c24                           401
    x67       c27                           819
    x67       c31                           878
    x67       c37                           556
    x68       obj1                            1
    x68       c4                            463
    x68       c6                            597
    x68       c10                           462
    x68       c21                           543
    x68       c33                           200
    x68       c39                           962
    x69       obj1                            1
    x69       c2                            411
    x69       c30                           712
    x69       c38                           446
    x70       obj1                            1
    x70       c7                            616
    x70       c8                            380
    x70       c18                           378
    x70       c31                           968
    x70       c36                           882
    x71       obj1                            1
    x72       obj1                            1
    x72       c14                           565
    x72       c20                           629
    x72       c22                           538
    x72       c34                           641
    x72       c38                           864
    x72       c40                           977
    x73       obj1                            1
    x73       c11                           941
    x73       c14                           686
    x73       c16                           201
    x73       c18                           890
    x73       c23                           783
    x73       c34                           455
    x74       obj1                            1
    x74       c7                            757
    x74       c11                           752
    x74       c15                           282
    x74       c25                           397
    x74       c32                           569
    x74       c35                           113
    x75       obj1                            1
    x75       c4                            432
    x75       c12                           906
    x75       c31                           640
    x75       c34                           186
    x75       c36                           281
    x76       obj1                            1
    x76       c2                            907
    x76       c14                           670
    x76       c30                           836
    x76       c33                           508
    x76       c36                           658
    x76       c37                           388
    x76       c40                           898
    x77       obj1                            1
    x77       c15                           661
    x77       c24                           198
    x77       c28                           629
    x77       c30                           400
    x77       c31                           828
    x77       c36                           720
    x77       c38                           740
    x78       obj1                            1
    x78       c2                            880
    x78       c9                            309
    x78       c15                           662
    x78       c27                           194
    x79       obj1                            1
    x79       c6                            447
    x79       c7                            433
    x79       c24                           404
    x79       c31                           215
    x80       obj1                            1
    x80       c1                            366
    x80       c5                            981
    x80       c18                           855
    x80       c20                           173
    MARK0001  'MARKER'                 'INTEND'
RHS
    rhs       c1                           1517
    rhs       c2                           2201
    rhs       c3                            881
    rhs       c4                           1219
    rhs       c5                           2181
    rhs       c6                           1286
    rhs       c7                           2514
    rhs       c8                           1478
    rhs       c9                           1845
    rhs       c10                          1860
    rhs       c11                          2053
    rhs       c12                          1799
    rhs       c13                          2095
    rhs       c14                          3999
    rhs       c15                          3103
    rhs       c16                          1220
    rhs       c17                          1357
    rhs       c18                          3339
    rhs       c19                          1278
    rhs       c20                          2720
    rhs       c21                          2512
    rhs       c22                          1984
    rhs       c23                          2851
    rhs       c24                          1791
    rhs       c25                          2597
    rhs       c26                          1156
    rhs       c27                          2736
    rhs       c28                          2179
    rhs       c29                          1255
    rhs       c30                          2472
    rhs       c31                          3408
    rhs       c32                          2990
    rhs       c33                          2894
    rhs       c34                          1457
    rhs       c35                          3638
    rhs       c36                          2678
    rhs       c37                          2296
    rhs       c38                          2740
    rhs       c39                          1688
    rhs       c40                          3903
BOUNDS
 LI bnd       x1        0
 LI bnd       x2        0
 LI bnd       x3        0
 LI bnd       x4        0
 LI bnd       x5        0
 LI bnd       x6        0
 LI bnd       x7        0
 LI bnd       x8        0
 LI bnd       x9        0
 LI bnd       x10       0
 LI bnd       x11       0
 LI bnd       x12       0
 LI bnd       x13       0
 LI bnd       x14       0
 LI bnd       x15       0
 LI bnd       x16       0
 LI bnd       x17       0
 LI bnd       x18       0
 LI bnd       x19       0
 LI bnd       x20       0
 LI bnd       x21       0
 LI bnd       x22       0
 LI bnd       x23       0
 LI bnd       x24       0
 LI bnd       x25       0
 LI bnd       x26       0
 LI bnd       x27       0
 LI bnd       x28       0
 LI bnd       x29       0
 LI bnd       x30       0
 LI bnd       x31       0
 LI bnd       x32       0
 LI bnd       x33       0
 LI bnd       x34       0
 LI bnd       x35       0
 LI bnd       x36       0
 LI bnd       x37       0
 LI bnd       x38       0
 LI bnd       x39       0
 LI bnd       x40       0
 LI bnd       x41       0
 LI bnd       x42       0
 LI bnd       x43       0
 LI bnd       x44       0
 LI bnd       x45       0
 LI bnd       x46       0
 LI bnd       x47       0
 LI bnd       x48       0
 LI bnd       x49       0
 LI bnd       x50       0
 LI bnd       x51       0
 LI bnd       x52       0
 LI bnd       x53       0
 LI bnd       x54       0
 LI bnd       x55       0
 LI bnd       x56       0
 LI bnd       x57       0
 LI bnd       x58       0
 LI bnd       x59       0
 LI bnd       x60       0
 LI bnd       x61       0
 LI bnd       x62       0
 LI bnd       x63       0
 LI bnd       x64       0
 LI bnd       x65       0
 LI bnd       x66       0
 LI bnd       x67       0
 LI bnd       x68       0
 LI bnd       x69       0
 LI bnd       x70       0
 LI bnd       x71       0
 LI bnd       x72       0
 LI bnd       x73       0
 LI bnd       x74       0
 LI bnd       x75       0
 LI bnd       x76       0
 LI bnd       x77       0
 LI bnd       x78       0
 LI bnd       x79       0
 LI bnd       x80       0
ENDATA
